 prtfsurf 1  # To output the FS
 iscf 7  
 occopt 4
 tsmear 0.03
# kptopt 1
 ngkpt   4 4 4   
 nshiftk 1
 shiftk  0.0 0.0 0.0 
 tolwfr  1.0d-6 #-18
 ecut    10.0  #Definition of the plane wave basis set
#nband   11
#nbdbuf 8
 nstep   4
 acell    1.0    1.0    1.0
 xred
    0.2661530080    0.4892309900    0.0902350020
    0.7346709970    0.4850130080    0.4234760110
    0.7323200110    0.5259069800    0.9162849780
    0.2649309930    0.5170410280    0.5901929740
    0.7625409960    0.0032740000    0.0709329990
    0.2348269970    0.9894210100    0.4151209890
    0.2346760030    0.0178800000    0.9149720070
    0.7630220060    0.0094760000    0.5707030300
    0.9988539810    0.0306030010    0.2480940070
    0.9983609910    0.9786739950    0.7479969860
    0.5035679940    0.5219150190    0.2670919900
    0.5002149940    0.4806460140    0.7602019910
    0.9983029960    0.5330759880    0.2453269960
    0.0018400000    0.4756239950    0.7464429740
    0.4995729920    0.0252640010    0.2522630100
    0.4996890130    0.9836149810    0.7525219920
    0.1200330030    0.2320650070    0.0784880000
    0.8799660210    0.2352489980    0.4172480110
    0.8780109880    0.7770799990    0.9165229800
    0.1196520030    0.7744060160    0.5780060290
    0.6205279830    0.7348309760    0.0898050000
    0.3814890090    0.7337790130    0.4268609880
    0.3804160060    0.2748979930    0.9260849950
    0.6198520060    0.2537299990    0.5929930210
    0.2084839940    0.3063899870    0.3051660060
    0.7900400160    0.3144769970    0.1971540000
    0.7853639720    0.6952859760    0.6995660070
    0.2077540010    0.6993899940    0.8050180080
    0.7172629830    0.8064259890    0.2987959980
    0.2939609890    0.8091419940    0.1990450020
    0.2920320030    0.1995799990    0.7002530100
    0.7213339810    0.2277850060    0.8022969960
    0.1407500060    0.3234060110    0.8768290280
    0.8629069920    0.3239549990    0.6242930290
    0.8595929740    0.6907610300    0.1228350030
    0.1395010050    0.6811940070    0.3758449850
    0.6373919840    0.8288009760    0.8818839790
    0.3615910110    0.8276240230    0.6288639900
    0.3608100120    0.1829299930    0.1287930010
    0.6378890280    0.1905020030    0.3788520100
    0.0105610000    0.2963339980    0.0522690010
    0.9895560150    0.2972700000    0.4421029980
    0.9864090090    0.7088710070    0.9373390080
    0.0096560000    0.7146250010    0.5511609910
    0.5089849830    0.7926890250    0.0520090010
    0.4925169940    0.7924230100    0.4598349930
    0.4906280040    0.2138870060    0.9553400280
    0.5061190130    0.2344679980    0.5478090050
    0.1236789970    0.9886119960    0.0701309960
    0.8765450120    0.9920610190    0.4205589890
    0.8765299920    0.0201580000    0.9187600020
    0.1246420000    0.0177820010    0.5698750020
    0.6256710290    0.4920539860    0.0760369970
    0.3722920120    0.4909699860    0.4356749950
    0.3773890140    0.5182420020    0.9363200070
 typat
 1 1 1
 1 1 1
 1 1 1
 1 1 1
 1 1 1
 1 2 2
 2 2 2
 2 2 2
 3 3 3
 3 3 3
 3 3 3
 3 3 3
 3 3 3
 3 3 3
 3 3 3
 3 3 3
 3 3 3
 3 3 3
 3
 ntypat 3
 rprim
   27.1562726285    0.0    0.0
    0.0   12.0710884812    0.0
   -4.8475955256    0.0   11.2403339670
 natom 55
 znucl 12 28 1
