ndtset 1
jdtset 21 

acell   3*1.0 angstrom

rprim   
-5.989700  5.989700  5.989700
5.989700  -5.989700  5.989700
5.989700   5.989700 -5.989700

natom  59
ntypat  3
typat 12*1 14*2 33*3
znucl 20 13 8

ecut    30 Ry
ngkpt   1 1 1
nshiftk 1
shiftk 0. 0. 0.
istwfk *1

iscf1 7
occopt 1
tsmear1 0.01
diemac1 10
diemix1 0.8
toldfe1 1.0d-4 eV
nband1 224

autoparal 1

icutcoul  7
gwmem    10
gwpara 2
symchi 1
awtr   1

# GW self energy correction
nband    224
ecutwfn  30 Ry
ecutsigx 30 Ry
ecuteps   5 Ry
rhoqpmix  0.1

###PBE0###
gwcalctyp2?  25
icutcoul2?    7
optdriver2?   4
getwfk2?      1

getqps21      0

nkptgw   1
kptgw
0.000000E+00  0.000000E+00  0.000000E+00  
bdgw
200 201

xred
  0.2500000000000000  0.4470700175891072  0.1970700175891071
  0.7500000000000000  0.1110331837623677  0.3610331837623677
  0.1392109598476321  0.2548359806568430  0.3877389121654573
  0.3867135536062036  0.1379117143496566  0.2459306559960180
  0.3607890401523680  0.7485279523178252  0.1156250208092109
  0.1132864463937964  0.3592171023898144  0.7511981607434530
  0.8919810583536387  0.7540693440039820  0.6407828976101855
  0.6080189416463613  0.2488018392565471  0.8620882856503435
  0.7500000000000000  0.6389668162376323  0.8889668162376323
  0.6329029315086142  0.8843749791907890  0.7451640193431570
  0.2500000000000000  0.8029299824108931  0.5529299824108931
  0.8670970684913858  0.6122610878345426  0.2514720476821748
  0.0359764011257735  0.0376746764535706  0.0346868397608344
  0.5014964699814949  0.0007362061958078  0.4639555219252305
  0.4640235988742266  0.4987104386350610  0.0016982753277900
  0.9985035300185051  0.4624590519437360  0.4992397362143060
  0.5367806842705772  0.5360444780747693  0.5375409480562638
  0.4970121633072639  0.9983017246722101  0.9623253235464295
  0.0029878366927362  0.9653131602391656  0.5012895613649390
  0.9632193157294228  0.5007602637856940  0.9992637938041922
  0.2500000000000000  0.1250000000000000  0.8750000000000000
  0.7500000000000000  0.3750000000000000  0.6250000000000000
  0.8737498849186782  0.2487198231712743  0.1231158529011769
  0.1256039702700974  0.8768841470988230  0.2506340320175009
  0.6262501150813218  0.7493659679824991  0.3749699382526034
  0.3743960297299025  0.6250300617474034  0.7512801768287259
  0.4175176872530350  0.1069557118914384  0.9018634610445507
  0.7110933010262910  0.5244773009052111  0.6185952059174441
  0.0824823127469650  0.9843457737915159  0.6894380246383963
  0.7889066989737090  0.4075019048911529  0.8133839998789130
  0.8752057809646985  0.4000103436768236  0.0833081190965732
  0.0956061737386211  0.8850332448659316  0.4083894943806122
  0.8137965914412467  0.7915158236946859  0.4002520588278848
  0.5220373644437177  0.6137309626780947  0.7099304211244047
  0.6247942190353015  0.7081023381318748  0.5248045627121324
  0.9779626355562823  0.6878930566806942  0.0916935982343843
  0.6862034085587533  0.0864554673866452  0.9777192322534389
  0.4043938262613789  0.8127833206419984  0.7894270711273107
  0.5961994584463169  0.9083064017656157  0.3862690373219050
  0.0233562495146876  0.2105729288726893  0.1149667551340683
  0.4766437504853125  0.5916105056193880  0.1872166793580016
  0.9038005415536831  0.2900695788755882  0.3121069433193058
  0.9058820949877530  0.3814047940825559  0.5924980951088470
  0.3912637648667940  0.5997479411721152  0.9135445326133547
  0.2949077491531122  0.3105619753616038  0.8930442881085617
  0.1087362351332061  0.0222807677465609  0.2084841763053141
  0.2050922508468878  0.0981365389554495  0.0156542262084845
  0.1832977754197425  0.4751954372878677  0.5999896563231766
  0.5941179050122470  0.1866160001210869  0.4755226990947888
  0.3167022245802575  0.9166918809034269  0.2918976618681252
  0.8648110049327806  0.8692586613908625  0.8701528585989124
  0.5142144023547921  0.0115449684259604  0.6382097541989725
  0.6351889950672194  0.5053418536661318  0.0044476564580819
  0.9857855976452079  0.6239953518441729  0.4973305660711611
  0.3733352142269882  0.3617902458010279  0.3760046481558271
  0.5008941972080501  0.9955523435419183  0.1307413386091376
  0.9991058027919499  0.1298471414010877  0.4946581463338681
  0.1266647857730118  0.5026694339288387  0.9884550315740396
  0.2500000000000000  0.6250000000000000  0.3750000000000000
